# Solution for model micodag
# Objective value = 7.8900243526859910e+00
s_0_1 0
s_1_0 0
s_0_2 0
s_2_0 0
s_1_2 1.0275550950359129e+00
s_2_1 0
s_2_3 0
s_3_2 0
s_2_5 0
s_5_2 6.9623440799939740e-01
s_3_4 0
s_4_3 0
s_3_5 0
s_5_3 7.2202021659854587e-01
s_3_6 0
s_6_3 5.5548019940867022e-01
s_4_5 0
s_5_4 0
s_4_6 0
s_6_4 5.2852906070331418e-01
s_4_7 0
s_7_4 3.0233254487837069e-01
s_5_6 0
s_6_5 0
s_5_7 0
s_7_5 5.9561114545235494e-01
s_5_8 0
s_8_5 3.8045181349370916e-01
s_6_7 0
s_7_6 0
s_6_8 0
s_8_6 4.3398171322735610e+00
s_7_8 0
s_8_7 0.355463459472396
s_0_0 1.9959063570750897e+00
s_1_1 1.8373881246109636e+00
s_2_2 1.2113220684581520e+00
s_3_3 0.976930138118222
s_4_4 6.6443006129765436e-01
s_5_5 1.9436574337943431e+00
s_6_6 4.3398171322735610e+00
s_7_7 0.913487361622503
s_8_8 1.0559540313748590e+00
Gamma_0_0 1.4127654996761105e+00
Gamma_0_1 0
Gamma_0_2 0
Gamma_0_3 0
Gamma_0_4 0
Gamma_0_5 0
Gamma_0_6 0
Gamma_0_7 0
Gamma_0_8 0
Gamma_1_0 0
Gamma_1_1 1.3555029046855502e+00
Gamma_1_2 1.0136839226484327e+00
Gamma_1_3 0
Gamma_1_4 0
Gamma_1_5 0
Gamma_1_6 0
Gamma_1_7 0
Gamma_1_8 0
Gamma_2_0 0
Gamma_2_1 0
Gamma_2_2 1.1006007761482601e+00
Gamma_2_3 0
Gamma_2_4 0
Gamma_2_5 0
Gamma_2_6 0
Gamma_2_7 0
Gamma_2_8 0
Gamma_3_0 0
Gamma_3_1 0
Gamma_3_2 0
Gamma_3_3 9.8839776310867011e-01
Gamma_3_4 0
Gamma_3_5 0
Gamma_3_6 0
Gamma_3_7 0
Gamma_3_8 0
Gamma_4_0 0
Gamma_4_1 0
Gamma_4_2 0
Gamma_4_3 0
Gamma_4_4 8.1512579476891489e-01
Gamma_4_5 0
Gamma_4_6 0
Gamma_4_7 0
Gamma_4_8 0
Gamma_5_0 0
Gamma_5_1 0
Gamma_5_2 -8.3440662029935886e-01
Gamma_5_3 -8.4971772760049313e-01
Gamma_5_4 0
Gamma_5_5 1.3941511517028358e+00
Gamma_5_6 0
Gamma_5_7 0
Gamma_5_8 0
Gamma_6_0 0
Gamma_6_1 0
Gamma_6_2 0
Gamma_6_3 -0.745305440345548
Gamma_6_4 7.2700004174918376e-01
Gamma_6_5 0
Gamma_6_6 9.7696604911443852e-01
Gamma_6_7 0
Gamma_6_8 0
Gamma_7_0 0
Gamma_7_1 0
Gamma_7_2 0
Gamma_7_3 0
Gamma_7_4 5.4984774699763184e-01
Gamma_7_5 7.7175847611306214e-01
Gamma_7_6 0
Gamma_7_7 9.5576532769425349e-01
Gamma_7_8 0
Gamma_8_0 0
Gamma_8_1 0
Gamma_8_2 0
Gamma_8_3 0
Gamma_8_4 0
Gamma_8_5 -6.1680776056540509e-01
Gamma_8_6 8.6778420161033942e-01
Gamma_8_7 5.9620756408519093e-01
Gamma_8_8 1.0275962394709608e+00
psi_0 0
psi_1 0
psi_2 3
psi_3 3
psi_4 2
psi_5 2
psi_6 1
psi_7 1
psi_8 0
g_0_0 0
g_0_1 0
g_0_2 0
g_0_3 0
g_0_4 0
g_0_5 0
g_0_6 0
g_0_7 0
g_0_8 0
g_1_0 0
g_1_1 0
g_1_2 1
g_1_3 0
g_1_4 0
g_1_5 0
g_1_6 0
g_1_7 0
g_1_8 0
g_2_0 0
g_2_1 0
g_2_2 0
g_2_3 0
g_2_4 0
g_2_5 0
g_2_6 0
g_2_7 0
g_2_8 0
g_3_0 0
g_3_1 0
g_3_2 0
g_3_3 0
g_3_4 0
g_3_5 0
g_3_6 0
g_3_7 0
g_3_8 0
g_4_0 0
g_4_1 0
g_4_2 0
g_4_3 0
g_4_4 0
g_4_5 0
g_4_6 0
g_4_7 0
g_4_8 0
g_5_0 0
g_5_1 0
g_5_2 1
g_5_3 1
g_5_4 0
g_5_5 0
g_5_6 0
g_5_7 0
g_5_8 0
g_6_0 0
g_6_1 0
g_6_2 0
g_6_3 1
g_6_4 1
g_6_5 0
g_6_6 0
g_6_7 0
g_6_8 0
g_7_0 0
g_7_1 0
g_7_2 0
g_7_3 0
g_7_4 1
g_7_5 1
g_7_6 0
g_7_7 0
g_7_8 0
g_8_0 0
g_8_1 0
g_8_2 0
g_8_3 0
g_8_4 0
g_8_5 1
g_8_6 1
g_8_7 1
g_8_8 0
T_0 -0.691098261495668
T_1 -6.0834506568585311e-01
T_2 -1.9171238169587923e-01
T_3 2.3340136028082270e-02
T_4 4.0882565648441016e-01
T_5 -6.6457147332619115e-01
T_6 0.0466067553638112
T_7 9.0485738374724178e-02
T_8 -5.4444653441549917e-02
